Problem:    modelo
Rows:       220
Columns:    171 (157 integer, 157 binary)
Non-zeros:  1134
Status:     INTEGER OPTIMAL
Objective:  obj = 1564 (MINimum)

   No.   Row name        Activity     Lower bound   Upper bound
------ ------------    ------------- ------------- -------------
     1 obj                      1564
     2 c1[1]                       1             1             =
     3 c1[2]                       1             1             =
     4 c1[3]                       1             1             =
     5 c1[4]                       1             1             =
     6 c1[5]                       1             1             =
     7 c1[6]                       1             1             =
     8 c1[7]                       1             1             =
     9 c1[8]                       1             1             =
    10 c1[9]                       1             1             =
    11 c1[10]                      1             1             =
    12 c1[11]                      1             1             =
    13 c1[12]                      1             1             =
    14 partida                     1             1             =
    15 chegada                     1             1             =
    16 c4[1]                       0            -0             =
    17 c4[2]                       0            -0             =
    18 c4[3]                       0            -0             =
    19 c4[4]                       0            -0             =
    20 c4[5]                       0            -0             =
    21 c4[6]                       0            -0             =
    22 c4[7]                       0            -0             =
    23 c4[8]                       0            -0             =
    24 c4[9]                       0            -0             =
    25 c4[10]                      0            -0             =
    26 c4[11]                      0            -0             =
    27 c4[12]                      0            -0             =
    28 c6[0,1]                    -1                       99999
    29 c6[0,2]                    -3                       99999
    30 c6[0,3]                    -5                       99999
    31 c6[0,4]                 99999                       99999
    32 c6[0,5]                    -6                       99999
    33 c6[0,6]                -99999                       99999
    34 c6[0,7]                    -1                       99999
    35 c6[0,8]                    -2                       99999
    36 c6[0,9]                    -1                       99999
    37 c6[0,10]                   -1                       99999
    38 c6[0,11]                   -4                       99999
    39 c6[0,12]              -100000                       99999
    40 c6[0,13]              -100001                       99999
    41 c6[1,2]                    -2                       99999
    42 c6[1,3]                    -4                       99999
    43 c6[1,4]                     0                       99999
    44 c6[1,5]                    -5                       99999
    45 c6[1,6]                -99998                       99999
    46 c6[1,7]                100000                       99999
    47 c6[1,8]                    -1                       99999
    48 c6[1,9]                     0                       99999
    49 c6[1,10]                    0                       99999
    50 c6[1,11]                   -3                       99999
    51 c6[1,12]               -99999                       99999
    52 c6[1,13]              -100000                       99999
    53 c6[2,1]                     2                       99999
    54 c6[2,3]                    -2                       99999
    55 c6[2,4]                     2                       99999
    56 c6[2,5]                    -3                       99999
    57 c6[2,6]                -99996                       99999
    58 c6[2,7]                     2                       99999
    59 c6[2,8]                     1                       99999
    60 c6[2,9]                     2                       99999
    61 c6[2,10]                    2                       99999
    62 c6[2,11]                99999                       99999
    63 c6[2,12]               -99997                       99999
    64 c6[2,13]               -99998                       99999
    65 c6[3,1]                     4                       99999
    66 c6[3,2]                     2                       99999
    67 c6[3,4]                     4                       99999
    68 c6[3,5]                 99999                       99999
    69 c6[3,6]                -99994                       99999
    70 c6[3,7]                     4                       99999
    71 c6[3,8]                     3                       99999
    72 c6[3,9]                     4                       99999
    73 c6[3,10]                    4                       99999
    74 c6[3,11]                    1                       99999
    75 c6[3,12]               -99995                       99999
    76 c6[3,13]               -99996                       99999
    77 c6[4,1]                     0                       99999
    78 c6[4,2]                    -2                       99999
    79 c6[4,3]                    -4                       99999
    80 c6[4,5]                    -5                       99999
    81 c6[4,6]                -99998                       99999
    82 c6[4,7]                     0                       99999
    83 c6[4,8]                 99999                       99999
    84 c6[4,9]                     0                       99999
    85 c6[4,10]                    0                       99999
    86 c6[4,11]                   -3                       99999
    87 c6[4,12]               -99999                       99999
    88 c6[4,13]              -100000                       99999
    89 c6[5,1]                     5                       99999
    90 c6[5,2]                     3                       99999
    91 c6[5,3]                     1                       99999
    92 c6[5,4]                     5                       99999
    93 c6[5,6]                     7                       99999
    94 c6[5,7]                     5                       99999
    95 c6[5,8]                     4                       99999
    96 c6[5,9]                     5                       99999
    97 c6[5,10]                    5                       99999
    98 c6[5,11]                    2                       99999
    99 c6[5,12]               -99994                       99999
   100 c6[5,13]               -99995                       99999
   101 c6[6,1]                 99998                       99999
   102 c6[6,2]                 99996                       99999
   103 c6[6,3]                 99994                       99999
   104 c6[6,4]                 99998                       99999
   105 c6[6,5]                 99993                       99999
   106 c6[6,7]                 99998                       99999
   107 c6[6,8]                 99997                       99999
   108 c6[6,9]                 99998                       99999
   109 c6[6,10]                99998                       99999
   110 c6[6,11]                99995                       99999
   111 c6[6,12]                99999                       99999
   112 c6[6,13]                   -2                       99999
   113 c6[7,1]                100000                       99999
   114 c6[7,2]                    -2                       99999
   115 c6[7,3]                    -4                       99999
   116 c6[7,4]                     0                       99999
   117 c6[7,5]                    -5                       99999
   118 c6[7,6]                -99998                       99999
   119 c6[7,8]                    -1                       99999
   120 c6[7,9]                     0                       99999
   121 c6[7,10]                    0                       99999
   122 c6[7,11]                   -3                       99999
   123 c6[7,12]               -99999                       99999
   124 c6[7,13]              -100000                       99999
   125 c6[8,1]                     1                       99999
   126 c6[8,2]                 99999                       99999
   127 c6[8,3]                    -3                       99999
   128 c6[8,4]                     1                       99999
   129 c6[8,5]                    -4                       99999
   130 c6[8,6]                -99997                       99999
   131 c6[8,7]                     1                       99999
   132 c6[8,9]                     1                       99999
   133 c6[8,10]                    1                       99999
   134 c6[8,11]                   -2                       99999
   135 c6[8,12]               -99998                       99999
   136 c6[8,13]               -99999                       99999
   137 c6[9,1]                     0                       99999
   138 c6[9,2]                    -2                       99999
   139 c6[9,3]                    -4                       99999
   140 c6[9,4]                     0                       99999
   141 c6[9,5]                    -5                       99999
   142 c6[9,6]                -99998                       99999
   143 c6[9,7]                     0                       99999
   144 c6[9,8]                    -1                       99999
   145 c6[9,10]               100000                       99999
   146 c6[9,11]                   -3                       99999
   147 c6[9,12]               -99999                       99999
   148 c6[9,13]              -100000                       99999
   149 c6[10,1]                    0                       99999
   150 c6[10,2]                   -2                       99999
   151 c6[10,3]                   -4                       99999
   152 c6[10,4]                    0                       99999
   153 c6[10,5]                   -5                       99999
   154 c6[10,6]               -99998                       99999
   155 c6[10,7]                    0                       99999
   156 c6[10,8]                   -1                       99999
   157 c6[10,9]               100000                       99999
   158 c6[10,11]                  -3                       99999
   159 c6[10,12]              -99999                       99999
   160 c6[10,13]             -100000                       99999
   161 c6[11,1]                    3                       99999
   162 c6[11,2]                    1                       99999
   163 c6[11,3]                99999                       99999
   164 c6[11,4]                    3                       99999
   165 c6[11,5]                   -2                       99999
   166 c6[11,6]               -99995                       99999
   167 c6[11,7]                    3                       99999
   168 c6[11,8]                    2                       99999
   169 c6[11,9]                    3                       99999
   170 c6[11,10]                   3                       99999
   171 c6[11,12]              -99996                       99999
   172 c6[11,13]              -99997                       99999
   173 c6[12,1]                99999                       99999
   174 c6[12,2]                99997                       99999
   175 c6[12,3]                99995                       99999
   176 c6[12,4]                99999                       99999
   177 c6[12,5]                99994                       99999
   178 c6[12,6]                    1                       99999
   179 c6[12,7]                99999                       99999
   180 c6[12,8]                99998                       99999
   181 c6[12,9]                99999                       99999
   182 c6[12,10]               99999                       99999
   183 c6[12,11]               99996                       99999
   184 c6[12,13]               99999                       99999
   185 precedencia[0,1]
                                  -1                          -1
   186 precedencia[0,2]
                                  -3                          -1
   187 precedencia[0,3]
                                  -5                          -1
   188 precedencia[0,4]
                                  -1                          -1
   189 precedencia[0,5]
                                  -6                          -1
   190 precedencia[0,6]
                              -99999                          -1
   191 precedencia[0,7]
                                  -1                          -1
   192 precedencia[0,8]
                                  -2                          -1
   193 precedencia[0,9]
                                  -1                          -1
   194 precedencia[0,10]
                                  -1                          -1
   195 precedencia[0,11]
                                  -4                          -1
   196 precedencia[0,12]
                             -100000                          -1
   197 precedencia[0,13]
                             -100001                          -1
   198 precedencia[1,6]
                              -99998                          -1
   199 precedencia[1,12]
                              -99999                          -1
   200 precedencia[1,13]
                             -100000                          -1
   201 precedencia[2,6]
                              -99996                          -1
   202 precedencia[2,12]
                              -99997                          -1
   203 precedencia[2,13]
                              -99998                          -1
   204 precedencia[3,6]
                              -99994                          -1
   205 precedencia[3,12]
                              -99995                          -1
   206 precedencia[3,13]
                              -99996                          -1
   207 precedencia[4,6]
                              -99998                          -1
   208 precedencia[4,12]
                              -99999                          -1
   209 precedencia[4,13]
                             -100000                          -1
   210 precedencia[5,13]
                              -99995                          -1
   211 precedencia[6,12]
                                  -1                          -1
   212 precedencia[6,13]
                                  -2                          -1
   213 precedencia[7,12]
                              -99999                          -1
   214 precedencia[7,13]
                             -100000                          -1
   215 precedencia[8,12]
                              -99998                          -1
   216 precedencia[8,13]
                              -99999                          -1
   217 precedencia[9,13]
                             -100000                          -1
   218 precedencia[10,13]
                             -100000                          -1
   219 precedencia[11,13]
                              -99997                          -1
   220 precedencia[12,13]
                                  -1                          -1

   No. Column name       Activity     Lower bound   Upper bound
------ ------------    ------------- ------------- -------------
     1 x[0,1]       *              0             0             1
     2 x[0,2]       *              0             0             1
     3 x[0,3]       *              0             0             1
     4 x[0,4]       *              1             0             1
     5 x[0,5]       *              0             0             1
     6 x[0,6]       *              0             0             1
     7 x[0,7]       *              0             0             1
     8 x[0,8]       *              0             0             1
     9 x[0,9]       *              0             0             1
    10 x[0,10]      *              0             0             1
    11 x[0,11]      *              0             0             1
    12 x[0,12]      *              0             0             1
    13 x[0,13]      *              0             0             1
    14 x[1,2]       *              0             0             1
    15 x[1,3]       *              0             0             1
    16 x[1,4]       *              0             0             1
    17 x[1,5]       *              0             0             1
    18 x[1,6]       *              0             0             1
    19 x[1,7]       *              1             0             1
    20 x[1,8]       *              0             0             1
    21 x[1,9]       *              0             0             1
    22 x[1,10]      *              0             0             1
    23 x[1,11]      *              0             0             1
    24 x[1,12]      *              0             0             1
    25 x[1,13]      *              0             0             1
    26 x[2,1]       *              0             0             1
    27 x[2,3]       *              0             0             1
    28 x[2,4]       *              0             0             1
    29 x[2,5]       *              0             0             1
    30 x[2,6]       *              0             0             1
    31 x[2,7]       *              0             0             1
    32 x[2,8]       *              0             0             1
    33 x[2,9]       *              0             0             1
    34 x[2,10]      *              0             0             1
    35 x[2,11]      *              1             0             1
    36 x[2,12]      *              0             0             1
    37 x[2,13]      *              0             0             1
    38 x[3,1]       *              0             0             1
    39 x[3,2]       *              0             0             1
    40 x[3,4]       *              0             0             1
    41 x[3,5]       *              1             0             1
    42 x[3,6]       *              0             0             1
    43 x[3,7]       *              0             0             1
    44 x[3,8]       *              0             0             1
    45 x[3,9]       *              0             0             1
    46 x[3,10]      *              0             0             1
    47 x[3,11]      *              0             0             1
    48 x[3,12]      *              0             0             1
    49 x[3,13]      *              0             0             1
    50 x[4,1]       *              0             0             1
    51 x[4,2]       *              0             0             1
    52 x[4,3]       *              0             0             1
    53 x[4,5]       *              0             0             1
    54 x[4,6]       *              0             0             1
    55 x[4,7]       *              0             0             1
    56 x[4,8]       *              1             0             1
    57 x[4,9]       *              0             0             1
    58 x[4,10]      *              0             0             1
    59 x[4,11]      *              0             0             1
    60 x[4,12]      *              0             0             1
    61 x[4,13]      *              0             0             1
    62 x[5,1]       *              0             0             1
    63 x[5,2]       *              0             0             1
    64 x[5,3]       *              0             0             1
    65 x[5,4]       *              0             0             1
    66 x[5,6]       *              1             0             1
    67 x[5,7]       *              0             0             1
    68 x[5,8]       *              0             0             1
    69 x[5,9]       *              0             0             1
    70 x[5,10]      *              0             0             1
    71 x[5,11]      *              0             0             1
    72 x[5,12]      *              0             0             1
    73 x[5,13]      *              0             0             1
    74 x[6,1]       *              0             0             1
    75 x[6,2]       *              0             0             1
    76 x[6,3]       *              0             0             1
    77 x[6,4]       *              0             0             1
    78 x[6,5]       *              0             0             1
    79 x[6,7]       *              0             0             1
    80 x[6,8]       *              0             0             1
    81 x[6,9]       *              0             0             1
    82 x[6,10]      *              0             0             1
    83 x[6,11]      *              0             0             1
    84 x[6,12]      *              1             0             1
    85 x[6,13]      *              0             0             1
    86 x[7,1]       *              1             0             1
    87 x[7,2]       *              0             0             1
    88 x[7,3]       *              0             0             1
    89 x[7,4]       *              0             0             1
    90 x[7,5]       *              0             0             1
    91 x[7,6]       *              0             0             1
    92 x[7,8]       *              0             0             1
    93 x[7,9]       *              0             0             1
    94 x[7,10]      *              0             0             1
    95 x[7,11]      *              0             0             1
    96 x[7,12]      *              0             0             1
    97 x[7,13]      *              0             0             1
    98 x[8,1]       *              0             0             1
    99 x[8,2]       *              1             0             1
   100 x[8,3]       *              0             0             1
   101 x[8,4]       *              0             0             1
   102 x[8,5]       *              0             0             1
   103 x[8,6]       *              0             0             1
   104 x[8,7]       *              0             0             1
   105 x[8,9]       *              0             0             1
   106 x[8,10]      *              0             0             1
   107 x[8,11]      *              0             0             1
   108 x[8,12]      *              0             0             1
   109 x[8,13]      *              0             0             1
   110 x[9,1]       *              0             0             1
   111 x[9,2]       *              0             0             1
   112 x[9,3]       *              0             0             1
   113 x[9,4]       *              0             0             1
   114 x[9,5]       *              0             0             1
   115 x[9,6]       *              0             0             1
   116 x[9,7]       *              0             0             1
   117 x[9,8]       *              0             0             1
   118 x[9,10]      *              1             0             1
   119 x[9,11]      *              0             0             1
   120 x[9,12]      *              0             0             1
   121 x[9,13]      *              0             0             1
   122 x[10,1]      *              0             0             1
   123 x[10,2]      *              0             0             1
   124 x[10,3]      *              0             0             1
   125 x[10,4]      *              0             0             1
   126 x[10,5]      *              0             0             1
   127 x[10,6]      *              0             0             1
   128 x[10,7]      *              0             0             1
   129 x[10,8]      *              0             0             1
   130 x[10,9]      *              1             0             1
   131 x[10,11]     *              0             0             1
   132 x[10,12]     *              0             0             1
   133 x[10,13]     *              0             0             1
   134 x[11,1]      *              0             0             1
   135 x[11,2]      *              0             0             1
   136 x[11,3]      *              1             0             1
   137 x[11,4]      *              0             0             1
   138 x[11,5]      *              0             0             1
   139 x[11,6]      *              0             0             1
   140 x[11,7]      *              0             0             1
   141 x[11,8]      *              0             0             1
   142 x[11,9]      *              0             0             1
   143 x[11,10]     *              0             0             1
   144 x[11,12]     *              0             0             1
   145 x[11,13]     *              0             0             1
   146 x[12,1]      *              0             0             1
   147 x[12,2]      *              0             0             1
   148 x[12,3]      *              0             0             1
   149 x[12,4]      *              0             0             1
   150 x[12,5]      *              0             0             1
   151 x[12,6]      *              0             0             1
   152 x[12,7]      *              0             0             1
   153 x[12,8]      *              0             0             1
   154 x[12,9]      *              0             0             1
   155 x[12,10]     *              0             0             1
   156 x[12,11]     *              0             0             1
   157 x[12,13]     *              1             0             1
   158 s[0]                        0             0
   159 s[1]                        1             0
   160 s[2]                        3             0
   161 s[3]                        5             0
   162 s[4]                        1             0
   163 s[5]                        6             0
   164 s[6]                    99999             0
   165 s[7]                        1             0
   166 s[8]                        2             0
   167 s[9]                        1             0
   168 s[10]                       1             0
   169 s[11]                       4             0
   170 s[12]                  100000             0
   171 s[13]                  100001             0

Integer feasibility conditions:

INT.PE: max.abs.err. = 6.38e-012 on row 109
        max.rel.err. = 6.38e-017 on row 109
        High quality

INT.PB: max.abs.err. = 1.00e+000 on row 157
        max.rel.err. = 1.00e-005 on row 157
        Low quality

End of output
